p td 20 39
4 1
5 2
6 3
8 4
9 3
9 1
10 7
10 4
11 6
11 7
11 1
11 5
12 11
13 1
14 9
15 8
15 7
16 11
16 2
16 12
16 8
16 10
16 13
17 3
17 14
17 4
17 6
17 9
17 10
18 15
18 6
18 9
19 4
19 18
19 13
19 7
20 4
20 13
20 12
